models/fzn/2x2_opt.txt
% Generated FlatZinc statistics:
%%%mzn-stat: paths=172
%%%mzn-stat: flatBoolVars=46
%%%mzn-stat: flatIntVars=29
%%%mzn-stat: flatBoolConstraints=28
%%%mzn-stat: flatIntConstraints=51
%%%mzn-stat: evaluatedReifiedConstraints=18
%%%mzn-stat: method="maximize"
%%%mzn-stat: flatTime=0.206183
%%%mzn-stat-end

